[90, 93, 88, 84, 115, 91, 94, 86, 84, 84, 321, 349, 333, 351, 367, 336, 355, 324, 322, 319, 1307, 1361, 1326, 1420, 1400, 1370, 1538, 1330, 1391, 1332, 5545, 5398, 5447, 5450, 5162, 5332, 5123, 5086, 5357, 5146, 20913, 21196, 21840, 23068, 21852, 23011, 21920, 22091, 23487, 23336]
